************************************************************************
file with basedata            : mm60_.bas
initial value random generator: 1717789062
************************************************************************
projects                      :  1
jobs (incl. supersource/sink ):  12
horizon                       :  74
RESOURCES
  - renewable                 :  2   R
  - nonrenewable              :  2   N
  - doubly constrained        :  0   D
************************************************************************
PROJECT INFORMATION:
pronr.  #jobs rel.date duedate tardcost  MPM-Time
    1     10      0       13        6       13
************************************************************************
PRECEDENCE RELATIONS:
jobnr.    #modes  #successors   successors
   0        1          3           1   2   3
   1        3          3           4   5   7
   2        3          1           8
   3        3          3           6   7   8
   4        3          1           9
   5        3          1           6
   6        3          1          10
   7        3          2           9  10
   8        3          1          11
   9        3          1          11
  10        3          1          11
  11        1          0        
************************************************************************
REQUESTS/DURATIONS:
jobnr. mode duration  R 1  R 2  R 3  R 4  E(W 1)  E(W 2)  E(W 3)
------------------------------------------------------------------------
  0      1     0       0    0    0    0     0       0       0
  1      1     3       6    7    6    0    39      18       0
  2      1     4       2   10    0    4    48       0      16
  3      1     1       4    6    0    7    10       0       7
  4      1     4      10    5   10    0    60      40       0
  5      1     2       9    3    4    0    24       8       0
  6      1     6       8    7    0    7    90       0      42
  7      1     5      10    3    0    7    65       0      35
  8      1     2       3    8    0    9    22       0      18
  9      1     5       8   10    5    0    90      25       0
 10      1     2      10    8    7    0    36      14       0
 11      1     0       0    0    0    0     0       0       0
************************************************************************
RESOURCEAVAILABILITIES:
  R 1  R 2  R 3
   55   46   64
************************************************************************
RESOURCE LIMITS:
jobnr.  l(R 1)  u(R 1)  l(R 2)  u(R 2)  l(R 3)  u(R 3)
------------------------------------------------------------------------
  0        0       0       0       0       0       0
  1        7      13       3       6       0       0
  2        6      12       0       0       2       4
  3        5      10       0       0       4       7
  4        8      15       5      10       0       0
  5        7      12       2       4       0       0
  6        8      15       0       0       4       7
  7        7      13       0       0       4       7
  8        6      11       0       0       5       9
  9        9      18       3       5       0       0
 10        9      18       4       7       0       0
 11        0       0       0       0       0       0
************************************************************************
SCENARIOS:
------------------------------------------------------------------------
RESOURCE k = 1
s = 1: (0, 24, 60, 6, 45, 23, 86, 48, 21, 166, 25, 0)
s = 2: (0, 36, 70, 12, 78, 24, 102, 59, 29, 113, 49, 0)
s = 3: (0, 32, 60, 10, 44, 24, 56, 81, 20, 113, 38, 0)
s = 4: (0, 25, 57, 13, 62, 19, 75, 54, 22, 133, 28, 0)
s = 5: (0, 27, 31, 8, 43, 33, 58, 70, 15, 67, 30, 0)
s = 6: (0, 26, 32, 12, 49, 28, 68, 59, 16, 84, 60, 0)
s = 7: (0, 27, 68, 7, 40, 14, 107, 71, 30, 87, 27, 0)
s = 8: (0, 38, 53, 12, 78, 20, 71, 82, 16, 130, 31, 0)
s = 9: (0, 66, 48, 8, 61, 29, 111, 54, 20, 73, 55, 0)
s = 10: (0, 44, 71, 8, 85, 22, 107, 39, 18, 85, 47, 0)
s = 11: (0, 60, 41, 10, 76, 17, 120, 79, 17, 88, 38, 0)
s = 12: (0, 30, 50, 8, 66, 32, 60, 71, 19, 126, 46, 0)
s = 13: (0, 27, 54, 9, 57, 24, 59, 79, 33, 46, 27, 0)
s = 14: (0, 45, 78, 7, 46, 42, 83, 75, 16, 66, 33, 0)
s = 15: (0, 28, 51, 13, 34, 19, 81, 57, 28, 80, 37, 0)
s = 16: (0, 27, 48, 14, 47, 24, 66, 63, 29, 61, 28, 0)
s = 17: (0, 22, 82, 15, 59, 34, 86, 98, 35, 143, 29, 0)
s = 18: (0, 33, 32, 10, 91, 22, 128, 96, 35, 57, 53, 0)
s = 19: (0, 44, 40, 9, 44, 21, 124, 59, 24, 86, 51, 0)
s = 20: (0, 51, 50, 11, 72, 20, 75, 74, 21, 63, 22, 0)
s = 21: (0, 45, 57, 14, 60, 22, 124, 62, 20, 72, 36, 0)
s = 22: (0, 47, 40, 14, 86, 22, 81, 62, 20, 67, 35, 0)
s = 23: (0, 59, 56, 13, 64, 26, 95, 68, 23, 71, 29, 0)
s = 24: (0, 26, 58, 11, 53, 27, 110, 78, 19, 96, 29, 0)
s = 25: (0, 28, 42, 8, 92, 27, 112, 78, 24, 64, 40, 0)
s = 26: (0, 52, 36, 13, 52, 30, 112, 64, 15, 78, 40, 0)
s = 27: (0, 41, 30, 11, 76, 27, 72, 61, 26, 84, 43, 0)
s = 28: (0, 63, 34, 14, 44, 22, 57, 65, 21, 82, 34, 0)
s = 29: (0, 36, 61, 8, 90, 17, 113, 101, 31, 158, 35, 0)
s = 30: (0, 36, 47, 9, 57, 21, 114, 52, 22, 111, 30, 0)
s = 31: (0, 37, 36, 12, 66, 15, 84, 81, 34, 47, 42, 0)
s = 32: (0, 28, 52, 13, 53, 15, 119, 95, 13, 65, 52, 0)
s = 33: (0, 42, 32, 16, 65, 41, 84, 54, 18, 88, 39, 0)
s = 34: (0, 36, 36, 11, 44, 28, 74, 89, 22, 60, 55, 0)
s = 35: (0, 32, 29, 12, 34, 17, 106, 54, 17, 120, 30, 0)
s = 36: (0, 33, 47, 13, 49, 24, 98, 67, 17, 107, 47, 0)
s = 37: (0, 44, 45, 14, 58, 30, 69, 102, 22, 124, 38, 0)
s = 38: (0, 52, 71, 14, 61, 28, 52, 102, 24, 83, 30, 0)
s = 39: (0, 29, 49, 12, 86, 19, 95, 105, 34, 99, 29, 0)
s = 40: (0, 48, 35, 13, 53, 19, 78, 57, 28, 84, 47, 0)
s = 41: (0, 61, 80, 9, 48, 16, 70, 69, 16, 83, 44, 0)
s = 42: (0, 29, 29, 9, 103, 19, 78, 64, 32, 74, 31, 0)
s = 43: (0, 28, 76, 7, 61, 16, 150, 39, 35, 73, 27, 0)
s = 44: (0, 37, 62, 7, 59, 29, 50, 77, 31, 91, 26, 0)
s = 45: (0, 41, 49, 11, 81, 28, 102, 59, 26, 82, 46, 0)
s = 46: (0, 32, 45, 10, 101, 33, 105, 55, 19, 88, 52, 0)
s = 47: (0, 46, 40, 12, 55, 24, 84, 95, 28, 71, 30, 0)
s = 48: (0, 35, 49, 12, 66, 20, 121, 76, 28, 62, 38, 0)
s = 49: (0, 22, 54, 10, 46, 24, 84, 51, 31, 104, 46, 0)
s = 50: (0, 36, 76, 10, 56, 21, 76, 50, 24, 67, 43, 0)
s = 51: (0, 26, 40, 12, 47, 25, 83, 66, 23, 52, 45, 0)
s = 52: (0, 28, 48, 12, 34, 17, 95, 37, 20, 81, 21, 0)
s = 53: (0, 45, 62, 10, 85, 18, 92, 64, 18, 74, 29, 0)
s = 54: (0, 33, 49, 12, 74, 24, 104, 53, 19, 82, 34, 0)
s = 55: (0, 36, 33, 7, 93, 39, 102, 43, 19, 60, 48, 0)
s = 56: (0, 32, 68, 14, 64, 23, 79, 53, 17, 83, 38, 0)
s = 57: (0, 26, 28, 13, 52, 24, 73, 54, 18, 83, 37, 0)
s = 58: (0, 39, 60, 14, 62, 41, 154, 66, 21, 81, 37, 0)
s = 59: (0, 30, 82, 10, 51, 15, 77, 46, 21, 66, 44, 0)
s = 60: (0, 47, 55, 10, 40, 16, 53, 77, 17, 70, 38, 0)
s = 61: (0, 27, 31, 15, 52, 19, 98, 63, 28, 105, 33, 0)
s = 62: (0, 30, 77, 11, 49, 21, 122, 90, 17, 68, 33, 0)
s = 63: (0, 58, 36, 8, 55, 32, 64, 67, 32, 96, 60, 0)
s = 64: (0, 43, 26, 11, 62, 28, 73, 48, 18, 110, 41, 0)
s = 65: (0, 41, 48, 18, 60, 18, 165, 62, 23, 65, 47, 0)
s = 66: (0, 34, 76, 9, 36, 24, 81, 77, 15, 151, 28, 0)
s = 67: (0, 48, 67, 12, 52, 16, 58, 67, 22, 98, 37, 0)
s = 68: (0, 28, 35, 14, 51, 33, 103, 89, 16, 59, 44, 0)
s = 69: (0, 26, 72, 16, 48, 21, 58, 66, 29, 62, 55, 0)
s = 70: (0, 49, 42, 11, 49, 20, 59, 59, 16, 101, 20, 0)
s = 71: (0, 43, 34, 10, 71, 17, 88, 81, 12, 80, 33, 0)
s = 72: (0, 28, 37, 8, 52, 28, 70, 36, 26, 108, 48, 0)
s = 73: (0, 29, 46, 9, 57, 31, 81, 60, 19, 158, 49, 0)
s = 74: (0, 48, 46, 7, 53, 33, 67, 59, 27, 82, 33, 0)
s = 75: (0, 33, 55, 6, 68, 24, 101, 75, 14, 117, 32, 0)
s = 76: (0, 28, 56, 17, 46, 27, 52, 73, 24, 106, 34, 0)
s = 77: (0, 33, 31, 9, 71, 34, 147, 77, 26, 88, 37, 0)
s = 78: (0, 34, 34, 12, 43, 29, 94, 69, 24, 52, 53, 0)
s = 79: (0, 26, 39, 15, 65, 36, 93, 66, 31, 69, 23, 0)
s = 80: (0, 48, 47, 9, 59, 20, 115, 40, 15, 86, 35, 0)
s = 81: (0, 56, 43, 14, 99, 31, 80, 65, 27, 92, 40, 0)
s = 82: (0, 43, 44, 9, 48, 28, 61, 91, 16, 71, 30, 0)
s = 83: (0, 34, 37, 10, 48, 20, 71, 96, 22, 107, 36, 0)
s = 84: (0, 44, 43, 11, 54, 28, 77, 41, 36, 52, 30, 0)
s = 85: (0, 51, 35, 13, 39, 23, 83, 57, 17, 55, 27, 0)
s = 86: (0, 28, 29, 13, 85, 34, 72, 60, 26, 83, 31, 0)
s = 87: (0, 52, 36, 7, 78, 31, 75, 49, 26, 99, 27, 0)
s = 88: (0, 33, 47, 14, 75, 32, 101, 42, 19, 67, 42, 0)
s = 89: (0, 41, 78, 13, 50, 14, 79, 52, 26, 55, 27, 0)
s = 90: (0, 23, 32, 9, 72, 23, 62, 51, 24, 111, 43, 0)
s = 91: (0, 42, 79, 11, 78, 14, 92, 62, 23, 63, 23, 0)
s = 92: (0, 29, 80, 15, 57, 17, 70, 112, 15, 93, 25, 0)
s = 93: (0, 37, 30, 14, 63, 18, 116, 43, 15, 76, 31, 0)
s = 94: (0, 21, 78, 6, 52, 15, 62, 81, 18, 61, 30, 0)
s = 95: (0, 35, 52, 9, 38, 39, 49, 71, 17, 102, 21, 0)
s = 96: (0, 44, 51, 11, 54, 24, 91, 89, 14, 67, 48, 0)
s = 97: (0, 34, 39, 12, 62, 17, 84, 71, 28, 125, 34, 0)
s = 98: (0, 29, 43, 12, 54, 21, 102, 96, 22, 77, 43, 0)
s = 99: (0, 40, 34, 10, 105, 22, 112, 108, 17, 66, 36, 0)
s = 100: (0, 50, 65, 16, 70, 26, 74, 47, 23, 58, 50, 0)
s = 101: (0, 34, 93, 11, 93, 17, 82, 69, 21, 56, 33, 0)
s = 102: (0, 33, 44, 6, 68, 19, 126, 60, 19, 163, 48, 0)
s = 103: (0, 30, 43, 6, 57, 14, 146, 60, 17, 76, 39, 0)
s = 104: (0, 35, 63, 11, 51, 21, 79, 89, 19, 52, 28, 0)
s = 105: (0, 31, 69, 17, 55, 15, 80, 65, 16, 99, 45, 0)
s = 106: (0, 26, 44, 15, 43, 27, 119, 74, 21, 79, 37, 0)
s = 107: (0, 46, 25, 11, 57, 31, 58, 77, 26, 122, 40, 0)
s = 108: (0, 40, 41, 10, 93, 19, 68, 78, 17, 49, 38, 0)
s = 109: (0, 57, 54, 12, 37, 36, 91, 65, 16, 113, 43, 0)
s = 110: (0, 34, 48, 9, 57, 21, 99, 103, 35, 74, 40, 0)
s = 111: (0, 29, 34, 11, 34, 39, 113, 60, 20, 72, 33, 0)
s = 112: (0, 22, 46, 16, 46, 23, 54, 79, 28, 67, 51, 0)
s = 113: (0, 36, 35, 11, 60, 24, 78, 76, 26, 80, 25, 0)
s = 114: (0, 41, 53, 13, 58, 20, 110, 75, 22, 88, 38, 0)
s = 115: (0, 59, 65, 9, 65, 29, 85, 64, 13, 47, 39, 0)
s = 116: (0, 54, 44, 8, 84, 18, 73, 60, 19, 64, 38, 0)
s = 117: (0, 53, 62, 9, 52, 17, 76, 68, 21, 68, 42, 0)
s = 118: (0, 32, 56, 8, 75, 17, 117, 46, 13, 96, 46, 0)
s = 119: (0, 36, 58, 11, 62, 32, 117, 93, 20, 75, 37, 0)
s = 120: (0, 33, 53, 9, 71, 22, 68, 57, 21, 86, 27, 0)
s = 121: (0, 51, 47, 9, 94, 20, 62, 63, 22, 51, 33, 0)
s = 122: (0, 35, 55, 9, 43, 17, 87, 67, 30, 93, 40, 0)
s = 123: (0, 40, 33, 10, 61, 23, 68, 80, 25, 92, 27, 0)
s = 124: (0, 30, 62, 12, 42, 18, 94, 60, 26, 127, 33, 0)
s = 125: (0, 31, 54, 11, 79, 29, 102, 64, 16, 94, 29, 0)
s = 126: (0, 31, 30, 12, 66, 26, 91, 38, 21, 136, 34, 0)
s = 127: (0, 42, 44, 14, 46, 36, 91, 72, 22, 94, 34, 0)
s = 128: (0, 44, 41, 10, 89, 18, 65, 66, 27, 69, 29, 0)
s = 129: (0, 21, 56, 13, 58, 22, 62, 59, 13, 85, 27, 0)
s = 130: (0, 28, 40, 9, 64, 42, 91, 50, 20, 78, 49, 0)
s = 131: (0, 54, 62, 16, 39, 34, 83, 71, 15, 80, 38, 0)
s = 132: (0, 73, 36, 8, 67, 25, 69, 46, 23, 107, 36, 0)
s = 133: (0, 34, 44, 10, 58, 22, 50, 45, 21, 82, 45, 0)
s = 134: (0, 51, 45, 9, 81, 25, 104, 64, 26, 64, 26, 0)
s = 135: (0, 32, 72, 16, 56, 16, 105, 37, 13, 143, 34, 0)
s = 136: (0, 29, 31, 8, 75, 35, 121, 72, 26, 83, 46, 0)
s = 137: (0, 40, 41, 17, 56, 16, 69, 88, 35, 111, 34, 0)
s = 138: (0, 38, 30, 8, 56, 21, 88, 53, 21, 126, 24, 0)
s = 139: (0, 42, 46, 7, 66, 14, 102, 90, 30, 76, 24, 0)
s = 140: (0, 51, 50, 16, 61, 17, 66, 38, 18, 85, 20, 0)
s = 141: (0, 56, 58, 9, 58, 19, 104, 57, 25, 73, 40, 0)
s = 142: (0, 42, 47, 14, 37, 25, 86, 44, 19, 116, 41, 0)
s = 143: (0, 41, 69, 8, 64, 24, 114, 131, 25, 57, 34, 0)
s = 144: (0, 30, 62, 11, 93, 29, 74, 52, 35, 58, 39, 0)
s = 145: (0, 46, 54, 18, 46, 45, 128, 102, 23, 146, 39, 0)
s = 146: (0, 35, 33, 15, 73, 27, 74, 67, 25, 100, 43, 0)
s = 147: (0, 43, 69, 10, 54, 27, 80, 60, 20, 89, 28, 0)
s = 148: (0, 33, 46, 14, 75, 21, 103, 73, 16, 78, 39, 0)
s = 149: (0, 27, 50, 8, 48, 27, 134, 44, 23, 107, 33, 0)
s = 150: (0, 24, 54, 11, 62, 29, 82, 41, 23, 77, 32, 0)
s = 151: (0, 51, 45, 8, 61, 23, 82, 81, 27, 75, 19, 0)
s = 152: (0, 23, 57, 12, 57, 19, 67, 71, 20, 54, 44, 0)
s = 153: (0, 32, 45, 12, 68, 23, 94, 78, 19, 144, 28, 0)
s = 154: (0, 51, 43, 9, 45, 25, 78, 71, 16, 139, 46, 0)
s = 155: (0, 30, 31, 7, 80, 15, 138, 93, 24, 89, 37, 0)
s = 156: (0, 53, 40, 15, 46, 15, 135, 38, 38, 104, 25, 0)
s = 157: (0, 55, 45, 7, 49, 23, 100, 46, 24, 99, 37, 0)
s = 158: (0, 50, 74, 8, 60, 18, 59, 53, 22, 77, 30, 0)
s = 159: (0, 73, 40, 8, 61, 16, 129, 79, 14, 91, 22, 0)
s = 160: (0, 35, 49, 11, 73, 30, 81, 52, 20, 59, 23, 0)
s = 161: (0, 48, 51, 12, 74, 38, 74, 49, 21, 92, 22, 0)
s = 162: (0, 50, 91, 11, 70, 20, 98, 85, 31, 78, 31, 0)
s = 163: (0, 26, 53, 11, 87, 21, 112, 81, 29, 77, 21, 0)
s = 164: (0, 39, 62, 11, 53, 17, 95, 69, 20, 119, 32, 0)
s = 165: (0, 62, 44, 16, 35, 18, 100, 66, 14, 84, 46, 0)
s = 166: (0, 34, 39, 8, 98, 25, 118, 82, 24, 87, 22, 0)
s = 167: (0, 34, 32, 6, 77, 14, 121, 76, 17, 73, 43, 0)
s = 168: (0, 62, 39, 18, 66, 35, 143, 52, 26, 76, 31, 0)
s = 169: (0, 40, 67, 9, 53, 29, 148, 84, 19, 169, 39, 0)
s = 170: (0, 50, 58, 6, 46, 17, 112, 52, 15, 88, 29, 0)
s = 171: (0, 38, 37, 14, 76, 26, 68, 56, 30, 86, 42, 0)
s = 172: (0, 45, 75, 17, 72, 25, 68, 82, 20, 94, 24, 0)
s = 173: (0, 45, 34, 11, 64, 21, 120, 77, 24, 62, 33, 0)
s = 174: (0, 35, 45, 10, 68, 25, 103, 53, 23, 88, 24, 0)
s = 175: (0, 41, 46, 7, 93, 24, 50, 64, 14, 70, 36, 0)
s = 176: (0, 42, 42, 7, 71, 18, 85, 50, 21, 83, 20, 0)
s = 177: (0, 25, 36, 8, 36, 21, 46, 39, 23, 100, 33, 0)
s = 178: (0, 42, 74, 9, 64, 23, 111, 100, 21, 122, 47, 0)
s = 179: (0, 44, 92, 10, 92, 21, 125, 104, 18, 73, 45, 0)
s = 180: (0, 41, 46, 9, 69, 16, 53, 49, 16, 99, 32, 0)
s = 181: (0, 66, 51, 11, 54, 20, 97, 63, 23, 68, 42, 0)
s = 182: (0, 23, 43, 16, 76, 30, 57, 49, 24, 90, 27, 0)
s = 183: (0, 35, 37, 13, 57, 35, 72, 42, 18, 61, 24, 0)
s = 184: (0, 28, 32, 17, 53, 24, 61, 70, 26, 166, 28, 0)
s = 185: (0, 43, 25, 15, 42, 21, 106, 48, 26, 122, 22, 0)
s = 186: (0, 32, 57, 8, 79, 25, 158, 39, 12, 81, 22, 0)
s = 187: (0, 30, 49, 8, 64, 19, 49, 64, 25, 61, 25, 0)
s = 188: (0, 44, 44, 7, 49, 16, 84, 64, 15, 91, 38, 0)
s = 189: (0, 36, 35, 12, 57, 32, 66, 54, 22, 89, 32, 0)
s = 190: (0, 33, 37, 7, 46, 26, 69, 70, 19, 87, 26, 0)
s = 191: (0, 40, 32, 12, 59, 31, 100, 55, 16, 66, 43, 0)
s = 192: (0, 59, 27, 11, 46, 20, 58, 51, 28, 71, 27, 0)
s = 193: (0, 51, 36, 11, 60, 27, 78, 73, 30, 55, 45, 0)
s = 194: (0, 23, 73, 11, 80, 33, 68, 47, 30, 106, 49, 0)
s = 195: (0, 39, 26, 7, 71, 28, 110, 84, 21, 68, 28, 0)
s = 196: (0, 27, 43, 9, 77, 37, 101, 57, 24, 71, 24, 0)
s = 197: (0, 35, 35, 11, 80, 25, 97, 91, 20, 125, 27, 0)
s = 198: (0, 35, 48, 6, 44, 18, 151, 66, 27, 61, 27, 0)
s = 199: (0, 34, 48, 12, 56, 25, 54, 66, 22, 91, 35, 0)
s = 200: (0, 31, 66, 9, 47, 17, 121, 76, 18, 102, 28, 0)
------------------------------------------------------------------------
RESOURCE k = 2
s = 1: (0, 11, 0, 0, 30, 8, 0, 0, 0, 46, 10, 0)
s = 2: (0, 17, 0, 0, 52, 8, 0, 0, 0, 32, 19, 0)
s = 3: (0, 15, 0, 0, 29, 8, 0, 0, 0, 32, 15, 0)
s = 4: (0, 12, 0, 0, 41, 7, 0, 0, 0, 37, 11, 0)
s = 5: (0, 13, 0, 0, 29, 11, 0, 0, 0, 19, 12, 0)
s = 6: (0, 12, 0, 0, 33, 10, 0, 0, 0, 24, 24, 0)
s = 7: (0, 13, 0, 0, 27, 5, 0, 0, 0, 24, 11, 0)
s = 8: (0, 18, 0, 0, 52, 7, 0, 0, 0, 36, 12, 0)
s = 9: (0, 31, 0, 0, 41, 10, 0, 0, 0, 21, 22, 0)
s = 10: (0, 21, 0, 0, 57, 8, 0, 0, 0, 24, 19, 0)
s = 11: (0, 28, 0, 0, 51, 6, 0, 0, 0, 25, 15, 0)
s = 12: (0, 14, 0, 0, 44, 11, 0, 0, 0, 35, 18, 0)
s = 13: (0, 13, 0, 0, 38, 8, 0, 0, 0, 13, 11, 0)
s = 14: (0, 21, 0, 0, 31, 14, 0, 0, 0, 19, 13, 0)
s = 15: (0, 13, 0, 0, 23, 7, 0, 0, 0, 23, 15, 0)
s = 16: (0, 13, 0, 0, 32, 8, 0, 0, 0, 17, 11, 0)
s = 17: (0, 11, 0, 0, 39, 12, 0, 0, 0, 40, 12, 0)
s = 18: (0, 16, 0, 0, 61, 8, 0, 0, 0, 16, 21, 0)
s = 19: (0, 21, 0, 0, 30, 7, 0, 0, 0, 24, 20, 0)
s = 20: (0, 24, 0, 0, 48, 7, 0, 0, 0, 18, 9, 0)
s = 21: (0, 21, 0, 0, 40, 8, 0, 0, 0, 20, 14, 0)
s = 22: (0, 22, 0, 0, 57, 8, 0, 0, 0, 19, 14, 0)
s = 23: (0, 28, 0, 0, 43, 9, 0, 0, 0, 20, 12, 0)
s = 24: (0, 12, 0, 0, 35, 9, 0, 0, 0, 27, 12, 0)
s = 25: (0, 13, 0, 0, 61, 9, 0, 0, 0, 18, 16, 0)
s = 26: (0, 24, 0, 0, 35, 10, 0, 0, 0, 22, 16, 0)
s = 27: (0, 19, 0, 0, 51, 9, 0, 0, 0, 24, 17, 0)
s = 28: (0, 29, 0, 0, 29, 8, 0, 0, 0, 23, 13, 0)
s = 29: (0, 17, 0, 0, 60, 6, 0, 0, 0, 44, 14, 0)
s = 30: (0, 17, 0, 0, 38, 7, 0, 0, 0, 31, 12, 0)
s = 31: (0, 17, 0, 0, 44, 5, 0, 0, 0, 14, 17, 0)
s = 32: (0, 13, 0, 0, 36, 5, 0, 0, 0, 18, 21, 0)
s = 33: (0, 20, 0, 0, 44, 14, 0, 0, 0, 25, 16, 0)
s = 34: (0, 17, 0, 0, 30, 10, 0, 0, 0, 17, 22, 0)
s = 35: (0, 15, 0, 0, 23, 6, 0, 0, 0, 34, 12, 0)
s = 36: (0, 15, 0, 0, 33, 8, 0, 0, 0, 30, 19, 0)
s = 37: (0, 21, 0, 0, 39, 10, 0, 0, 0, 35, 15, 0)
s = 38: (0, 24, 0, 0, 41, 10, 0, 0, 0, 23, 12, 0)
s = 39: (0, 13, 0, 0, 57, 7, 0, 0, 0, 28, 12, 0)
s = 40: (0, 22, 0, 0, 36, 7, 0, 0, 0, 24, 19, 0)
s = 41: (0, 28, 0, 0, 32, 6, 0, 0, 0, 23, 18, 0)
s = 42: (0, 14, 0, 0, 69, 7, 0, 0, 0, 21, 12, 0)
s = 43: (0, 13, 0, 0, 41, 6, 0, 0, 0, 21, 11, 0)
s = 44: (0, 17, 0, 0, 40, 10, 0, 0, 0, 26, 11, 0)
s = 45: (0, 19, 0, 0, 54, 10, 0, 0, 0, 23, 18, 0)
s = 46: (0, 15, 0, 0, 68, 11, 0, 0, 0, 25, 20, 0)
s = 47: (0, 21, 0, 0, 37, 8, 0, 0, 0, 20, 12, 0)
s = 48: (0, 17, 0, 0, 44, 7, 0, 0, 0, 18, 15, 0)
s = 49: (0, 10, 0, 0, 31, 8, 0, 0, 0, 29, 18, 0)
s = 50: (0, 17, 0, 0, 37, 7, 0, 0, 0, 19, 17, 0)
s = 51: (0, 12, 0, 0, 31, 9, 0, 0, 0, 15, 18, 0)
s = 52: (0, 13, 0, 0, 23, 6, 0, 0, 0, 23, 9, 0)
s = 53: (0, 21, 0, 0, 57, 6, 0, 0, 0, 21, 11, 0)
s = 54: (0, 16, 0, 0, 49, 8, 0, 0, 0, 23, 14, 0)
s = 55: (0, 17, 0, 0, 62, 13, 0, 0, 0, 17, 19, 0)
s = 56: (0, 15, 0, 0, 43, 8, 0, 0, 0, 23, 15, 0)
s = 57: (0, 12, 0, 0, 35, 8, 0, 0, 0, 23, 15, 0)
s = 58: (0, 18, 0, 0, 41, 14, 0, 0, 0, 23, 15, 0)
s = 59: (0, 14, 0, 0, 34, 5, 0, 0, 0, 19, 17, 0)
s = 60: (0, 22, 0, 0, 27, 6, 0, 0, 0, 20, 15, 0)
s = 61: (0, 13, 0, 0, 35, 7, 0, 0, 0, 29, 13, 0)
s = 62: (0, 14, 0, 0, 33, 7, 0, 0, 0, 19, 13, 0)
s = 63: (0, 27, 0, 0, 37, 11, 0, 0, 0, 27, 24, 0)
s = 64: (0, 20, 0, 0, 41, 10, 0, 0, 0, 31, 16, 0)
s = 65: (0, 19, 0, 0, 40, 6, 0, 0, 0, 18, 18, 0)
s = 66: (0, 16, 0, 0, 24, 8, 0, 0, 0, 42, 11, 0)
s = 67: (0, 22, 0, 0, 35, 6, 0, 0, 0, 28, 15, 0)
s = 68: (0, 13, 0, 0, 34, 11, 0, 0, 0, 17, 18, 0)
s = 69: (0, 12, 0, 0, 32, 7, 0, 0, 0, 18, 22, 0)
s = 70: (0, 23, 0, 0, 33, 7, 0, 0, 0, 29, 8, 0)
s = 71: (0, 20, 0, 0, 48, 6, 0, 0, 0, 23, 13, 0)
s = 72: (0, 13, 0, 0, 35, 10, 0, 0, 0, 30, 19, 0)
s = 73: (0, 14, 0, 0, 38, 11, 0, 0, 0, 44, 19, 0)
s = 74: (0, 23, 0, 0, 35, 11, 0, 0, 0, 23, 13, 0)
s = 75: (0, 16, 0, 0, 45, 8, 0, 0, 0, 33, 13, 0)
s = 76: (0, 13, 0, 0, 31, 9, 0, 0, 0, 30, 13, 0)
s = 77: (0, 16, 0, 0, 48, 12, 0, 0, 0, 25, 15, 0)
s = 78: (0, 16, 0, 0, 29, 10, 0, 0, 0, 15, 21, 0)
s = 79: (0, 12, 0, 0, 43, 12, 0, 0, 0, 20, 9, 0)
s = 80: (0, 22, 0, 0, 40, 7, 0, 0, 0, 24, 14, 0)
s = 81: (0, 26, 0, 0, 66, 11, 0, 0, 0, 26, 16, 0)
s = 82: (0, 20, 0, 0, 32, 10, 0, 0, 0, 20, 12, 0)
s = 83: (0, 16, 0, 0, 32, 7, 0, 0, 0, 30, 14, 0)
s = 84: (0, 21, 0, 0, 36, 10, 0, 0, 0, 15, 12, 0)
s = 85: (0, 24, 0, 0, 26, 8, 0, 0, 0, 16, 11, 0)
s = 86: (0, 13, 0, 0, 57, 12, 0, 0, 0, 23, 12, 0)
s = 87: (0, 24, 0, 0, 52, 11, 0, 0, 0, 28, 11, 0)
s = 88: (0, 15, 0, 0, 50, 11, 0, 0, 0, 19, 17, 0)
s = 89: (0, 19, 0, 0, 34, 5, 0, 0, 0, 16, 11, 0)
s = 90: (0, 11, 0, 0, 48, 8, 0, 0, 0, 31, 17, 0)
s = 91: (0, 20, 0, 0, 52, 5, 0, 0, 0, 18, 9, 0)
s = 92: (0, 14, 0, 0, 38, 6, 0, 0, 0, 26, 10, 0)
s = 93: (0, 17, 0, 0, 42, 6, 0, 0, 0, 22, 12, 0)
s = 94: (0, 10, 0, 0, 35, 5, 0, 0, 0, 17, 12, 0)
s = 95: (0, 17, 0, 0, 25, 13, 0, 0, 0, 29, 8, 0)
s = 96: (0, 21, 0, 0, 36, 8, 0, 0, 0, 19, 19, 0)
s = 97: (0, 16, 0, 0, 42, 6, 0, 0, 0, 35, 14, 0)
s = 98: (0, 13, 0, 0, 36, 7, 0, 0, 0, 22, 17, 0)
s = 99: (0, 19, 0, 0, 70, 8, 0, 0, 0, 19, 14, 0)
s = 100: (0, 24, 0, 0, 47, 9, 0, 0, 0, 16, 20, 0)
s = 101: (0, 16, 0, 0, 62, 6, 0, 0, 0, 16, 13, 0)
s = 102: (0, 15, 0, 0, 46, 7, 0, 0, 0, 46, 19, 0)
s = 103: (0, 14, 0, 0, 38, 5, 0, 0, 0, 21, 16, 0)
s = 104: (0, 16, 0, 0, 34, 7, 0, 0, 0, 15, 11, 0)
s = 105: (0, 15, 0, 0, 37, 5, 0, 0, 0, 28, 18, 0)
s = 106: (0, 12, 0, 0, 29, 9, 0, 0, 0, 22, 15, 0)
s = 107: (0, 21, 0, 0, 38, 11, 0, 0, 0, 34, 16, 0)
s = 108: (0, 19, 0, 0, 62, 7, 0, 0, 0, 14, 15, 0)
s = 109: (0, 27, 0, 0, 25, 12, 0, 0, 0, 32, 17, 0)
s = 110: (0, 16, 0, 0, 38, 7, 0, 0, 0, 21, 16, 0)
s = 111: (0, 14, 0, 0, 23, 13, 0, 0, 0, 20, 13, 0)
s = 112: (0, 10, 0, 0, 31, 8, 0, 0, 0, 19, 20, 0)
s = 113: (0, 17, 0, 0, 40, 8, 0, 0, 0, 23, 10, 0)
s = 114: (0, 19, 0, 0, 39, 7, 0, 0, 0, 25, 15, 0)
s = 115: (0, 28, 0, 0, 43, 10, 0, 0, 0, 13, 15, 0)
s = 116: (0, 25, 0, 0, 56, 6, 0, 0, 0, 18, 15, 0)
s = 117: (0, 25, 0, 0, 35, 6, 0, 0, 0, 19, 17, 0)
s = 118: (0, 15, 0, 0, 50, 6, 0, 0, 0, 27, 18, 0)
s = 119: (0, 17, 0, 0, 42, 11, 0, 0, 0, 21, 15, 0)
s = 120: (0, 16, 0, 0, 47, 8, 0, 0, 0, 24, 11, 0)
s = 121: (0, 24, 0, 0, 63, 7, 0, 0, 0, 14, 13, 0)
s = 122: (0, 17, 0, 0, 29, 6, 0, 0, 0, 26, 16, 0)
s = 123: (0, 19, 0, 0, 41, 8, 0, 0, 0, 26, 11, 0)
s = 124: (0, 14, 0, 0, 28, 6, 0, 0, 0, 36, 13, 0)
s = 125: (0, 15, 0, 0, 53, 10, 0, 0, 0, 26, 12, 0)
s = 126: (0, 15, 0, 0, 44, 9, 0, 0, 0, 38, 13, 0)
s = 127: (0, 20, 0, 0, 31, 12, 0, 0, 0, 27, 14, 0)
s = 128: (0, 21, 0, 0, 59, 6, 0, 0, 0, 20, 11, 0)
s = 129: (0, 10, 0, 0, 39, 8, 0, 0, 0, 24, 11, 0)
s = 130: (0, 13, 0, 0, 43, 14, 0, 0, 0, 22, 19, 0)
s = 131: (0, 25, 0, 0, 26, 12, 0, 0, 0, 22, 15, 0)
s = 132: (0, 34, 0, 0, 45, 9, 0, 0, 0, 30, 14, 0)
s = 133: (0, 16, 0, 0, 39, 8, 0, 0, 0, 23, 18, 0)
s = 134: (0, 24, 0, 0, 54, 9, 0, 0, 0, 18, 10, 0)
s = 135: (0, 15, 0, 0, 38, 6, 0, 0, 0, 40, 14, 0)
s = 136: (0, 13, 0, 0, 50, 12, 0, 0, 0, 24, 18, 0)
s = 137: (0, 19, 0, 0, 37, 6, 0, 0, 0, 31, 14, 0)
s = 138: (0, 18, 0, 0, 38, 7, 0, 0, 0, 35, 10, 0)
s = 139: (0, 20, 0, 0, 44, 5, 0, 0, 0, 22, 10, 0)
s = 140: (0, 24, 0, 0, 41, 6, 0, 0, 0, 24, 8, 0)
s = 141: (0, 26, 0, 0, 39, 7, 0, 0, 0, 21, 16, 0)
s = 142: (0, 20, 0, 0, 25, 9, 0, 0, 0, 33, 16, 0)
s = 143: (0, 19, 0, 0, 43, 8, 0, 0, 0, 16, 14, 0)
s = 144: (0, 14, 0, 0, 62, 10, 0, 0, 0, 16, 15, 0)
s = 145: (0, 22, 0, 0, 31, 15, 0, 0, 0, 41, 15, 0)
s = 146: (0, 16, 0, 0, 49, 9, 0, 0, 0, 28, 17, 0)
s = 147: (0, 20, 0, 0, 36, 9, 0, 0, 0, 25, 11, 0)
s = 148: (0, 15, 0, 0, 50, 7, 0, 0, 0, 22, 15, 0)
s = 149: (0, 13, 0, 0, 32, 9, 0, 0, 0, 30, 13, 0)
s = 150: (0, 12, 0, 0, 41, 10, 0, 0, 0, 22, 13, 0)
s = 151: (0, 24, 0, 0, 41, 8, 0, 0, 0, 21, 8, 0)
s = 152: (0, 11, 0, 0, 38, 7, 0, 0, 0, 15, 17, 0)
s = 153: (0, 15, 0, 0, 46, 8, 0, 0, 0, 40, 11, 0)
s = 154: (0, 24, 0, 0, 30, 9, 0, 0, 0, 39, 18, 0)
s = 155: (0, 14, 0, 0, 54, 5, 0, 0, 0, 25, 15, 0)
s = 156: (0, 25, 0, 0, 31, 5, 0, 0, 0, 29, 10, 0)
s = 157: (0, 26, 0, 0, 33, 8, 0, 0, 0, 28, 15, 0)
s = 158: (0, 24, 0, 0, 40, 6, 0, 0, 0, 22, 12, 0)
s = 159: (0, 34, 0, 0, 41, 6, 0, 0, 0, 26, 9, 0)
s = 160: (0, 17, 0, 0, 49, 10, 0, 0, 0, 17, 9, 0)
s = 161: (0, 23, 0, 0, 49, 13, 0, 0, 0, 26, 9, 0)
s = 162: (0, 23, 0, 0, 47, 7, 0, 0, 0, 22, 12, 0)
s = 163: (0, 12, 0, 0, 58, 7, 0, 0, 0, 22, 9, 0)
s = 164: (0, 18, 0, 0, 36, 6, 0, 0, 0, 33, 13, 0)
s = 165: (0, 29, 0, 0, 24, 6, 0, 0, 0, 24, 18, 0)
s = 166: (0, 16, 0, 0, 65, 9, 0, 0, 0, 25, 9, 0)
s = 167: (0, 16, 0, 0, 52, 5, 0, 0, 0, 21, 17, 0)
s = 168: (0, 29, 0, 0, 44, 12, 0, 0, 0, 22, 12, 0)
s = 169: (0, 19, 0, 0, 36, 10, 0, 0, 0, 47, 15, 0)
s = 170: (0, 24, 0, 0, 31, 6, 0, 0, 0, 25, 11, 0)
s = 171: (0, 18, 0, 0, 51, 9, 0, 0, 0, 24, 16, 0)
s = 172: (0, 21, 0, 0, 48, 9, 0, 0, 0, 26, 10, 0)
s = 173: (0, 21, 0, 0, 43, 7, 0, 0, 0, 18, 13, 0)
s = 174: (0, 16, 0, 0, 45, 9, 0, 0, 0, 25, 10, 0)
s = 175: (0, 19, 0, 0, 62, 8, 0, 0, 0, 20, 14, 0)
s = 176: (0, 20, 0, 0, 47, 6, 0, 0, 0, 24, 8, 0)
s = 177: (0, 12, 0, 0, 24, 7, 0, 0, 0, 28, 13, 0)
s = 178: (0, 20, 0, 0, 43, 8, 0, 0, 0, 34, 18, 0)
s = 179: (0, 20, 0, 0, 62, 7, 0, 0, 0, 21, 18, 0)
s = 180: (0, 19, 0, 0, 46, 6, 0, 0, 0, 28, 13, 0)
s = 181: (0, 31, 0, 0, 36, 7, 0, 0, 0, 19, 17, 0)
s = 182: (0, 11, 0, 0, 51, 10, 0, 0, 0, 25, 11, 0)
s = 183: (0, 16, 0, 0, 38, 12, 0, 0, 0, 17, 10, 0)
s = 184: (0, 13, 0, 0, 36, 8, 0, 0, 0, 46, 11, 0)
s = 185: (0, 20, 0, 0, 28, 7, 0, 0, 0, 34, 9, 0)
s = 186: (0, 15, 0, 0, 53, 9, 0, 0, 0, 23, 9, 0)
s = 187: (0, 14, 0, 0, 43, 7, 0, 0, 0, 17, 10, 0)
s = 188: (0, 21, 0, 0, 33, 6, 0, 0, 0, 26, 15, 0)
s = 189: (0, 17, 0, 0, 38, 11, 0, 0, 0, 25, 13, 0)
s = 190: (0, 15, 0, 0, 31, 9, 0, 0, 0, 25, 10, 0)
s = 191: (0, 19, 0, 0, 39, 11, 0, 0, 0, 19, 17, 0)
s = 192: (0, 27, 0, 0, 31, 7, 0, 0, 0, 20, 11, 0)
s = 193: (0, 24, 0, 0, 40, 9, 0, 0, 0, 16, 18, 0)
s = 194: (0, 11, 0, 0, 53, 11, 0, 0, 0, 30, 19, 0)
s = 195: (0, 18, 0, 0, 48, 10, 0, 0, 0, 19, 11, 0)
s = 196: (0, 13, 0, 0, 51, 13, 0, 0, 0, 20, 10, 0)
s = 197: (0, 16, 0, 0, 54, 9, 0, 0, 0, 35, 11, 0)
s = 198: (0, 17, 0, 0, 29, 6, 0, 0, 0, 17, 11, 0)
s = 199: (0, 16, 0, 0, 38, 9, 0, 0, 0, 26, 14, 0)
s = 200: (0, 14, 0, 0, 32, 6, 0, 0, 0, 29, 11, 0)
------------------------------------------------------------------------
RESOURCE k = 3
s = 1: (0, 0, 20, 4, 0, 0, 40, 26, 17, 0, 0, 0)
s = 2: (0, 0, 24, 8, 0, 0, 48, 32, 24, 0, 0, 0)
s = 3: (0, 0, 20, 7, 0, 0, 27, 44, 16, 0, 0, 0)
s = 4: (0, 0, 19, 9, 0, 0, 35, 29, 18, 0, 0, 0)
s = 5: (0, 0, 11, 6, 0, 0, 27, 38, 13, 0, 0, 0)
s = 6: (0, 0, 11, 8, 0, 0, 32, 32, 13, 0, 0, 0)
s = 7: (0, 0, 23, 5, 0, 0, 50, 39, 25, 0, 0, 0)
s = 8: (0, 0, 18, 8, 0, 0, 33, 44, 14, 0, 0, 0)
s = 9: (0, 0, 16, 6, 0, 0, 52, 30, 16, 0, 0, 0)
s = 10: (0, 0, 24, 6, 0, 0, 50, 21, 15, 0, 0, 0)
s = 11: (0, 0, 14, 7, 0, 0, 56, 43, 14, 0, 0, 0)
s = 12: (0, 0, 17, 6, 0, 0, 28, 38, 16, 0, 0, 0)
s = 13: (0, 0, 18, 6, 0, 0, 28, 43, 27, 0, 0, 0)
s = 14: (0, 0, 26, 5, 0, 0, 39, 41, 13, 0, 0, 0)
s = 15: (0, 0, 17, 9, 0, 0, 38, 31, 23, 0, 0, 0)
s = 16: (0, 0, 16, 10, 0, 0, 31, 34, 24, 0, 0, 0)
s = 17: (0, 0, 28, 11, 0, 0, 41, 53, 29, 0, 0, 0)
s = 18: (0, 0, 11, 7, 0, 0, 60, 52, 29, 0, 0, 0)
s = 19: (0, 0, 14, 6, 0, 0, 58, 32, 20, 0, 0, 0)
s = 20: (0, 0, 17, 8, 0, 0, 35, 40, 17, 0, 0, 0)
s = 21: (0, 0, 19, 10, 0, 0, 58, 33, 17, 0, 0, 0)
s = 22: (0, 0, 14, 10, 0, 0, 38, 34, 17, 0, 0, 0)
s = 23: (0, 0, 19, 9, 0, 0, 45, 37, 19, 0, 0, 0)
s = 24: (0, 0, 20, 8, 0, 0, 52, 42, 15, 0, 0, 0)
s = 25: (0, 0, 14, 6, 0, 0, 53, 42, 20, 0, 0, 0)
s = 26: (0, 0, 12, 9, 0, 0, 52, 35, 13, 0, 0, 0)
s = 27: (0, 0, 10, 8, 0, 0, 34, 33, 21, 0, 0, 0)
s = 28: (0, 0, 12, 10, 0, 0, 27, 35, 17, 0, 0, 0)
s = 29: (0, 0, 21, 6, 0, 0, 53, 55, 26, 0, 0, 0)
s = 30: (0, 0, 16, 7, 0, 0, 53, 28, 18, 0, 0, 0)
s = 31: (0, 0, 12, 8, 0, 0, 39, 44, 28, 0, 0, 0)
s = 32: (0, 0, 18, 9, 0, 0, 56, 51, 11, 0, 0, 0)
s = 33: (0, 0, 11, 12, 0, 0, 40, 29, 15, 0, 0, 0)
s = 34: (0, 0, 12, 8, 0, 0, 35, 48, 18, 0, 0, 0)
s = 35: (0, 0, 10, 9, 0, 0, 50, 29, 14, 0, 0, 0)
s = 36: (0, 0, 16, 9, 0, 0, 46, 36, 14, 0, 0, 0)
s = 37: (0, 0, 15, 10, 0, 0, 33, 55, 18, 0, 0, 0)
s = 38: (0, 0, 24, 10, 0, 0, 25, 55, 19, 0, 0, 0)
s = 39: (0, 0, 17, 8, 0, 0, 45, 57, 28, 0, 0, 0)
s = 40: (0, 0, 12, 9, 0, 0, 37, 31, 23, 0, 0, 0)
s = 41: (0, 0, 27, 7, 0, 0, 33, 38, 13, 0, 0, 0)
s = 42: (0, 0, 10, 7, 0, 0, 37, 35, 26, 0, 0, 0)
s = 43: (0, 0, 26, 5, 0, 0, 70, 21, 29, 0, 0, 0)
s = 44: (0, 0, 21, 5, 0, 0, 23, 42, 26, 0, 0, 0)
s = 45: (0, 0, 17, 8, 0, 0, 48, 32, 21, 0, 0, 0)
s = 46: (0, 0, 15, 7, 0, 0, 49, 30, 16, 0, 0, 0)
s = 47: (0, 0, 14, 8, 0, 0, 39, 52, 23, 0, 0, 0)
s = 48: (0, 0, 17, 8, 0, 0, 57, 41, 23, 0, 0, 0)
s = 49: (0, 0, 18, 7, 0, 0, 39, 28, 25, 0, 0, 0)
s = 50: (0, 0, 26, 7, 0, 0, 36, 27, 20, 0, 0, 0)
s = 51: (0, 0, 14, 8, 0, 0, 39, 36, 19, 0, 0, 0)
s = 52: (0, 0, 16, 9, 0, 0, 44, 20, 16, 0, 0, 0)
s = 53: (0, 0, 21, 7, 0, 0, 43, 34, 15, 0, 0, 0)
s = 54: (0, 0, 17, 9, 0, 0, 49, 29, 15, 0, 0, 0)
s = 55: (0, 0, 11, 5, 0, 0, 48, 23, 15, 0, 0, 0)
s = 56: (0, 0, 23, 10, 0, 0, 37, 29, 14, 0, 0, 0)
s = 57: (0, 0, 10, 9, 0, 0, 34, 29, 15, 0, 0, 0)
s = 58: (0, 0, 20, 10, 0, 0, 72, 36, 17, 0, 0, 0)
s = 59: (0, 0, 28, 7, 0, 0, 36, 25, 17, 0, 0, 0)
s = 60: (0, 0, 19, 7, 0, 0, 25, 42, 14, 0, 0, 0)
s = 61: (0, 0, 11, 10, 0, 0, 46, 34, 23, 0, 0, 0)
s = 62: (0, 0, 26, 8, 0, 0, 57, 49, 14, 0, 0, 0)
s = 63: (0, 0, 12, 6, 0, 0, 30, 36, 26, 0, 0, 0)
s = 64: (0, 0, 9, 8, 0, 0, 34, 26, 15, 0, 0, 0)
s = 65: (0, 0, 16, 12, 0, 0, 77, 34, 19, 0, 0, 0)
s = 66: (0, 0, 26, 6, 0, 0, 38, 42, 13, 0, 0, 0)
s = 67: (0, 0, 23, 9, 0, 0, 27, 36, 18, 0, 0, 0)
s = 68: (0, 0, 12, 10, 0, 0, 48, 48, 13, 0, 0, 0)
s = 69: (0, 0, 24, 11, 0, 0, 27, 36, 24, 0, 0, 0)
s = 70: (0, 0, 14, 8, 0, 0, 28, 32, 13, 0, 0, 0)
s = 71: (0, 0, 12, 7, 0, 0, 41, 44, 10, 0, 0, 0)
s = 72: (0, 0, 13, 6, 0, 0, 33, 20, 21, 0, 0, 0)
s = 73: (0, 0, 16, 6, 0, 0, 38, 32, 16, 0, 0, 0)
s = 74: (0, 0, 16, 5, 0, 0, 31, 32, 22, 0, 0, 0)
s = 75: (0, 0, 19, 4, 0, 0, 47, 41, 12, 0, 0, 0)
s = 76: (0, 0, 19, 12, 0, 0, 25, 40, 20, 0, 0, 0)
s = 77: (0, 0, 11, 7, 0, 0, 69, 42, 22, 0, 0, 0)
s = 78: (0, 0, 12, 9, 0, 0, 44, 37, 20, 0, 0, 0)
s = 79: (0, 0, 13, 11, 0, 0, 43, 36, 26, 0, 0, 0)
s = 80: (0, 0, 16, 6, 0, 0, 54, 22, 12, 0, 0, 0)
s = 81: (0, 0, 15, 10, 0, 0, 38, 35, 22, 0, 0, 0)
s = 82: (0, 0, 15, 6, 0, 0, 29, 49, 13, 0, 0, 0)
s = 83: (0, 0, 13, 7, 0, 0, 34, 52, 18, 0, 0, 0)
s = 84: (0, 0, 15, 8, 0, 0, 36, 22, 30, 0, 0, 0)
s = 85: (0, 0, 12, 9, 0, 0, 39, 31, 14, 0, 0, 0)
s = 86: (0, 0, 10, 9, 0, 0, 34, 32, 21, 0, 0, 0)
s = 87: (0, 0, 12, 5, 0, 0, 35, 27, 21, 0, 0, 0)
s = 88: (0, 0, 16, 10, 0, 0, 47, 23, 15, 0, 0, 0)
s = 89: (0, 0, 26, 10, 0, 0, 37, 28, 21, 0, 0, 0)
s = 90: (0, 0, 11, 7, 0, 0, 29, 28, 20, 0, 0, 0)
s = 91: (0, 0, 27, 8, 0, 0, 43, 34, 19, 0, 0, 0)
s = 92: (0, 0, 27, 11, 0, 0, 33, 60, 13, 0, 0, 0)
s = 93: (0, 0, 10, 10, 0, 0, 54, 23, 12, 0, 0, 0)
s = 94: (0, 0, 26, 4, 0, 0, 29, 44, 14, 0, 0, 0)
s = 95: (0, 0, 18, 6, 0, 0, 23, 39, 14, 0, 0, 0)
s = 96: (0, 0, 17, 8, 0, 0, 43, 48, 11, 0, 0, 0)
s = 97: (0, 0, 13, 9, 0, 0, 39, 38, 23, 0, 0, 0)
s = 98: (0, 0, 15, 8, 0, 0, 48, 52, 18, 0, 0, 0)
s = 99: (0, 0, 12, 7, 0, 0, 53, 59, 14, 0, 0, 0)
s = 100: (0, 0, 22, 11, 0, 0, 35, 25, 19, 0, 0, 0)
s = 101: (0, 0, 31, 8, 0, 0, 39, 37, 17, 0, 0, 0)
s = 102: (0, 0, 15, 5, 0, 0, 59, 32, 15, 0, 0, 0)
s = 103: (0, 0, 15, 4, 0, 0, 68, 33, 14, 0, 0, 0)
s = 104: (0, 0, 21, 8, 0, 0, 37, 48, 15, 0, 0, 0)
s = 105: (0, 0, 23, 12, 0, 0, 38, 35, 13, 0, 0, 0)
s = 106: (0, 0, 15, 11, 0, 0, 56, 40, 17, 0, 0, 0)
s = 107: (0, 0, 9, 8, 0, 0, 28, 42, 22, 0, 0, 0)
s = 108: (0, 0, 14, 7, 0, 0, 32, 42, 14, 0, 0, 0)
s = 109: (0, 0, 18, 9, 0, 0, 43, 35, 13, 0, 0, 0)
s = 110: (0, 0, 16, 6, 0, 0, 46, 56, 29, 0, 0, 0)
s = 111: (0, 0, 12, 8, 0, 0, 53, 33, 16, 0, 0, 0)
s = 112: (0, 0, 16, 11, 0, 0, 26, 43, 23, 0, 0, 0)
s = 113: (0, 0, 12, 8, 0, 0, 37, 41, 21, 0, 0, 0)
s = 114: (0, 0, 18, 9, 0, 0, 52, 41, 18, 0, 0, 0)
s = 115: (0, 0, 22, 7, 0, 0, 40, 35, 11, 0, 0, 0)
s = 116: (0, 0, 15, 6, 0, 0, 34, 33, 16, 0, 0, 0)
s = 117: (0, 0, 21, 7, 0, 0, 36, 37, 18, 0, 0, 0)
s = 118: (0, 0, 19, 6, 0, 0, 55, 25, 10, 0, 0, 0)
s = 119: (0, 0, 20, 8, 0, 0, 55, 50, 16, 0, 0, 0)
s = 120: (0, 0, 18, 6, 0, 0, 32, 31, 17, 0, 0, 0)
s = 121: (0, 0, 16, 6, 0, 0, 29, 34, 18, 0, 0, 0)
s = 122: (0, 0, 19, 6, 0, 0, 41, 36, 24, 0, 0, 0)
s = 123: (0, 0, 11, 7, 0, 0, 32, 44, 21, 0, 0, 0)
s = 124: (0, 0, 21, 9, 0, 0, 44, 33, 21, 0, 0, 0)
s = 125: (0, 0, 18, 8, 0, 0, 48, 35, 13, 0, 0, 0)
s = 126: (0, 0, 10, 8, 0, 0, 43, 21, 17, 0, 0, 0)
s = 127: (0, 0, 15, 10, 0, 0, 43, 39, 18, 0, 0, 0)
s = 128: (0, 0, 14, 7, 0, 0, 31, 36, 23, 0, 0, 0)
s = 129: (0, 0, 19, 10, 0, 0, 29, 32, 11, 0, 0, 0)
s = 130: (0, 0, 14, 7, 0, 0, 43, 27, 17, 0, 0, 0)
s = 131: (0, 0, 21, 11, 0, 0, 39, 38, 13, 0, 0, 0)
s = 132: (0, 0, 12, 6, 0, 0, 33, 25, 19, 0, 0, 0)
s = 133: (0, 0, 15, 7, 0, 0, 24, 25, 17, 0, 0, 0)
s = 134: (0, 0, 15, 6, 0, 0, 49, 35, 22, 0, 0, 0)
s = 135: (0, 0, 24, 12, 0, 0, 49, 20, 11, 0, 0, 0)
s = 136: (0, 0, 11, 6, 0, 0, 57, 39, 21, 0, 0, 0)
s = 137: (0, 0, 14, 12, 0, 0, 33, 48, 29, 0, 0, 0)
s = 138: (0, 0, 10, 6, 0, 0, 41, 29, 17, 0, 0, 0)
s = 139: (0, 0, 16, 5, 0, 0, 48, 49, 25, 0, 0, 0)
s = 140: (0, 0, 17, 11, 0, 0, 31, 21, 15, 0, 0, 0)
s = 141: (0, 0, 20, 7, 0, 0, 49, 31, 20, 0, 0, 0)
s = 142: (0, 0, 16, 10, 0, 0, 40, 24, 16, 0, 0, 0)
s = 143: (0, 0, 23, 6, 0, 0, 54, 71, 20, 0, 0, 0)
s = 144: (0, 0, 21, 8, 0, 0, 35, 28, 29, 0, 0, 0)
s = 145: (0, 0, 18, 13, 0, 0, 60, 55, 19, 0, 0, 0)
s = 146: (0, 0, 11, 11, 0, 0, 35, 36, 20, 0, 0, 0)
s = 147: (0, 0, 23, 7, 0, 0, 38, 33, 16, 0, 0, 0)
s = 148: (0, 0, 16, 10, 0, 0, 48, 39, 13, 0, 0, 0)
s = 149: (0, 0, 17, 6, 0, 0, 63, 24, 19, 0, 0, 0)
s = 150: (0, 0, 18, 8, 0, 0, 39, 22, 19, 0, 0, 0)
s = 151: (0, 0, 15, 6, 0, 0, 39, 44, 22, 0, 0, 0)
s = 152: (0, 0, 19, 8, 0, 0, 32, 38, 16, 0, 0, 0)
s = 153: (0, 0, 15, 8, 0, 0, 44, 42, 15, 0, 0, 0)
s = 154: (0, 0, 15, 6, 0, 0, 37, 38, 14, 0, 0, 0)
s = 155: (0, 0, 11, 5, 0, 0, 65, 50, 20, 0, 0, 0)
s = 156: (0, 0, 14, 11, 0, 0, 63, 20, 31, 0, 0, 0)
s = 157: (0, 0, 15, 5, 0, 0, 47, 25, 19, 0, 0, 0)
s = 158: (0, 0, 25, 6, 0, 0, 28, 29, 18, 0, 0, 0)
s = 159: (0, 0, 14, 6, 0, 0, 60, 43, 12, 0, 0, 0)
s = 160: (0, 0, 17, 8, 0, 0, 38, 28, 17, 0, 0, 0)
s = 161: (0, 0, 17, 9, 0, 0, 35, 26, 18, 0, 0, 0)
s = 162: (0, 0, 31, 8, 0, 0, 46, 46, 25, 0, 0, 0)
s = 163: (0, 0, 18, 8, 0, 0, 53, 44, 24, 0, 0, 0)
s = 164: (0, 0, 21, 8, 0, 0, 45, 37, 16, 0, 0, 0)
s = 165: (0, 0, 15, 12, 0, 0, 47, 36, 11, 0, 0, 0)
s = 166: (0, 0, 13, 6, 0, 0, 55, 45, 19, 0, 0, 0)
s = 167: (0, 0, 11, 4, 0, 0, 57, 41, 14, 0, 0, 0)
s = 168: (0, 0, 13, 13, 0, 0, 67, 28, 21, 0, 0, 0)
s = 169: (0, 0, 23, 6, 0, 0, 70, 45, 16, 0, 0, 0)
s = 170: (0, 0, 20, 4, 0, 0, 53, 28, 13, 0, 0, 0)
s = 171: (0, 0, 13, 10, 0, 0, 32, 30, 25, 0, 0, 0)
s = 172: (0, 0, 25, 12, 0, 0, 32, 44, 16, 0, 0, 0)
s = 173: (0, 0, 12, 8, 0, 0, 56, 42, 19, 0, 0, 0)
s = 174: (0, 0, 15, 7, 0, 0, 49, 29, 19, 0, 0, 0)
s = 175: (0, 0, 16, 5, 0, 0, 23, 34, 12, 0, 0, 0)
s = 176: (0, 0, 14, 5, 0, 0, 40, 27, 17, 0, 0, 0)
s = 177: (0, 0, 12, 5, 0, 0, 22, 21, 19, 0, 0, 0)
s = 178: (0, 0, 25, 6, 0, 0, 52, 54, 17, 0, 0, 0)
s = 179: (0, 0, 31, 7, 0, 0, 58, 56, 15, 0, 0, 0)
s = 180: (0, 0, 16, 7, 0, 0, 25, 27, 13, 0, 0, 0)
s = 181: (0, 0, 17, 8, 0, 0, 45, 34, 19, 0, 0, 0)
s = 182: (0, 0, 15, 11, 0, 0, 27, 27, 20, 0, 0, 0)
s = 183: (0, 0, 13, 9, 0, 0, 34, 23, 15, 0, 0, 0)
s = 184: (0, 0, 11, 12, 0, 0, 29, 38, 21, 0, 0, 0)
s = 185: (0, 0, 9, 10, 0, 0, 50, 26, 21, 0, 0, 0)
s = 186: (0, 0, 19, 6, 0, 0, 74, 21, 10, 0, 0, 0)
s = 187: (0, 0, 17, 6, 0, 0, 23, 35, 21, 0, 0, 0)
s = 188: (0, 0, 15, 5, 0, 0, 40, 35, 13, 0, 0, 0)
s = 189: (0, 0, 12, 9, 0, 0, 31, 30, 18, 0, 0, 0)
s = 190: (0, 0, 13, 5, 0, 0, 33, 38, 16, 0, 0, 0)
s = 191: (0, 0, 11, 8, 0, 0, 47, 30, 13, 0, 0, 0)
s = 192: (0, 0, 9, 8, 0, 0, 27, 28, 23, 0, 0, 0)
s = 193: (0, 0, 12, 8, 0, 0, 37, 39, 25, 0, 0, 0)
s = 194: (0, 0, 25, 8, 0, 0, 32, 25, 25, 0, 0, 0)
s = 195: (0, 0, 9, 5, 0, 0, 52, 46, 17, 0, 0, 0)
s = 196: (0, 0, 15, 7, 0, 0, 47, 31, 20, 0, 0, 0)
s = 197: (0, 0, 12, 8, 0, 0, 46, 49, 17, 0, 0, 0)
s = 198: (0, 0, 16, 4, 0, 0, 71, 36, 22, 0, 0, 0)
s = 199: (0, 0, 16, 9, 0, 0, 26, 36, 18, 0, 0, 0)
s = 200: (0, 0, 22, 7, 0, 0, 57, 41, 15, 0, 0, 0)
************************************************************************
ES/LS-VALUES:
jobnr.   ES(i)    LS(i)
------------------------------------------------------------------------
  0        0        0
  1        0       47
  2        0       62
  3        0       51
  4        5       57
  5        5       55
  6        8       59
  7        5       53
  8        7       70
  9       15       64
 10       19       70
 11       24       74
************************************************************************
BIG-M-VALUES:
M1 = 53, M2 = 286
************************************************************************
